59 90 48 36 58 27 26 54 77 74 23 0 9 85 33 56 31 18 83 98 78 24 62 4 64 2 34 11 39 71 40 30 28 69 32 57 87 88 66 3 22 6 73 65 86 15 45 10 89 81 50 80 70 41 52 43 16 96 14 79 25 53 82 49 72 35 5 37 92 20 17 29 93 75 46 68 38 91 60 61 67 12 76 97 19 84 21 7 13 55 51 42 63 8 47 44 99 94 1 95